
Gurobi 9.5.0 (mac64[x86]) logging started Mon  3 Oct 14:52:14 2022

Set parameter LogFile to value "/Users/nikitabelyak/Dropbox (Aalto)/TSEP/Nordic_case_study/2022 data/optimisation_results/03_Oct_2022_14_52_14.log"
Set parameter Threads to value 6
